#--------------------------------------------------------------------------
#input structure
#--------------------------------------------------------------------------
units		metal
atom_style	atomic
read_data	lmp.in.x0.1
#--------------------------------------------------------------------------
#si potentials
#--------------------------------------------------------------------------
pair_style      sw
pair_coeff      * * Si.sw Si
#--------------------------------------------------------------------------
#variables
#--------------------------------------------------------------------------
variable   	dt 		equal 0.0005
#--------------------------------------------------------------------------

#--------------------------------------------------------------------------
#SED parameters
#--------------------------------------------------------------------------
variable	w_step		equal 128		
variable	w_total		equal 524288
variable	t_total		equal 524288
variable	num_ffts	equal ${t_total}/${w_total}

##########SEED##########################################################
variable iseed equal 3
variable seed equal 3333

#--------------------------------------------------------------------------
variable 	T_run 		equal 300
#--------------------------------------------------------------------------

log 	log_heat_${iseed}.lammps

#------------ NVE rescale ---------------------------------------------------------------------	
	velocity 		all create ${T_run} ${seed} rot yes dist gaussian
	fix 			1 all nve
	fix 			2 all temp/rescale 1 ${T_run} ${T_run} 0.01 1.0
	timestep		${dt}
	compute 		myDis all msd 
	thermo_style  		custom step temp press etotal vol c_myDis[4]
	thermo			1000
	run             	50000	
#	run             	1000
	unfix 			1
	unfix 			2
	uncompute		myDis
#------------ NVE -----------------------------------------------------------------------------	
	fix 			1 all nve
	timestep		${dt}
	compute 		myDis all msd
	thermo_style  		custom step temp press etotal vol c_myDis[4]
	thermo			1000
	run             	100000	
#	run             	10000
	unfix 			1
	uncompute		myDis
#------SED-------------------------------------------------------------------------
label loop_fft
variable ifft loop ${num_ffts}

log 	log_SED_${iseed}_${ifft}.lammps
	reset_timestep  	0
	fix 			1 all nve
	dump 			vel all custom ${w_step} dump_${iseed}_${ifft}.vel vx vy vz
	dump_modify 		vel sort id
#	dump 			pos all custom ${w_step} dump_${iseed}_${ifft}.pos xu yu zu
#	dump_modify 		pos sort id
	compute 		myDis all msd
	thermo_style 		custom step temp press etotal vol c_myDis[4]
	thermo			5000
	timestep		${dt}
	run			${w_total}
	unfix			1
	undump			vel
#	undump			pos
	uncompute		myDis

next ifft
jump lmp.in.sed.3 loop_fft
